p cnf 74 230
a 50 66 0
e 1 2 3 4 5 6 7 8 9 10 11 12 13 14 15 16 17 18 19 20 21 22 23 24 25 26 27 28 29 30 31 32 33 34 35 36 37 38 39 40 41 42 43 44 45 46 47 48 49 51 52 53 54 55 56 57 58 59 60 61 62 63 64 65 67 68 69 70 71 72 73 74 0
3 -1 0
3 -2 0
1 2 -3 0
4 -1 0
4 3 0
1 -3 -4 0
-5 4 -6 0
5 -4 -6 0
-5 -4 6 0
5 4 6 0
7 -4 0
7 6 0
4 -6 -7 0
10 9 0
10 -2 0
-9 2 -10 0
10 5 -11 0
-10 -5 -11 0
10 -5 11 0
-10 5 11 0
-12 8 0
-12 11 0
-8 -11 12 0
-13 -7 0
-13 12 0
7 -12 13 0
-14 -5 0
-14 1 0
5 -1 14 0
-10 11 -16 0
10 -11 -16 0
-10 -11 16 0
10 11 16 0
17 15 0
17 -16 0
-15 16 -17 0
18 -17 0
18 2 0
17 -2 -18 0
19 -18 0
19 5 0
18 -5 -19 0
-20 -9 0
-20 3 0
9 -3 20 0
19 -20 -21 0
-19 20 -21 0
19 20 21 0
-19 -20 21 0
-22 -14 0
-22 -21 0
14 21 22 0
23 13 0
23 22 0
-13 -22 -23 0
-24 -3 -25 0
24 3 -25 0
-24 3 25 0
24 -3 25 0
25 2 -26 0
-25 -2 -26 0
25 -2 26 0
-25 2 26 0
-27 -9 0
-27 -26 0
9 26 27 0
28 -15 0
28 10 0
15 -10 -28 0
-29 27 0
-29 28 0
-27 -28 29 0
-30 25 0
-30 -25 0
-32 6 0
-32 -31 0
-6 31 32 0
-33 -20 0
-33 32 0
20 -32 33 0
-34 -30 0
-34 -33 0
30 33 34 0
35 -2 0
35 25 0
2 -25 -35 0
36 9 0
36 -35 0
-9 35 -36 0
-37 34 0
-37 -36 0
-34 36 37 0
29 -37 -38 0
-29 37 -38 0
29 37 38 0
-29 -37 38 0
-39 9 -40 0
39 -9 -40 0
-39 -9 40 0
39 9 40 0
41 -40 0
41 20 0
40 -20 -41 0
-43 -42 0
-43 15 0
42 -15 43 0
44 43 0
44 -1 0
-43 1 -44 0
-10 44 -45 0
10 -44 -45 0
-10 -44 45 0
10 44 45 0
-46 6 0
-46 -44 0
-6 44 46 0
47 -17 0
47 -4 0
17 4 -47 0
-48 -46 0
-48 47 0
46 -47 48 0
49 -45 0
49 -48 0
45 48 -49 0
3 25 -50 0
-3 -25 -50 0
3 -25 50 0
-3 25 50 0
51 50 0
51 -31 0
-50 31 -51 0
-52 49 0
-52 51 0
-49 -51 52 0
-53 41 0
-53 52 0
-41 -52 53 0
38 -53 -54 0
-38 53 -54 0
38 53 54 0
-38 -53 54 0
-15 17 -55 0
15 -17 -55 0
-15 -17 55 0
15 17 55 0
-56 55 0
-56 6 0
-55 -6 56 0
-57 -56 0
-57 26 0
56 -26 57 0
-58 15 0
-58 -20 0
-15 20 58 0
-59 58 0
-59 -20 0
-58 20 59 0
60 42 0
60 -20 0
-42 20 -60 0
59 60 -61 0
-59 -60 -61 0
59 -60 61 0
-59 60 61 0
-62 57 0
-62 61 0
-57 -61 62 0
54 62 -63 0
-54 -62 -63 0
54 -62 63 0
-54 62 63 0
-64 -24 0
-64 -26 0
24 26 64 0
65 -39 0
65 -15 0
39 15 -65 0
-66 39 0
-66 42 0
-39 -42 66 0
-65 66 -67 0
65 -66 -67 0
-65 -66 67 0
65 66 67 0
68 -64 0
68 67 0
64 -67 -68 0
-43 19 -69 0
43 -19 -69 0
-43 -19 69 0
43 19 69 0
70 -4 0
70 9 0
4 -9 -70 0
69 70 -71 0
-69 -70 -71 0
69 -70 71 0
-69 70 71 0
-72 68 0
-72 -71 0
-68 71 72 0
73 -63 0
73 72 0
63 -72 -73 0
74 23 0
74 -73 0
-23 73 -74 0
4 -58 38 -65 37 0
-1 -41 -43 8 -68 0
11 13 36 -64 67 0
-1 22 3 61 59 0
-25 -49 8 0
49 -60 -47 28 33 -15 7 0
-21 -37 26 1 52 -73 0
-8 62 18 -43 0
51 25 -69 0
-30 60 23 0
-67 46 -58 9 -18 71 -31 0
-6 -52 36 -71 40 -9 14 0
-70 44 -41 -65 0
-62 5 -37 30 -50 -67 0
-59 -10 -29 -3 27 0
38 -24 32 -56 37 -72 0
41 33 4 0
-45 33 15 -5 -30 0
-21 37 -47 41 44 -59 0
10 -38 1 -41 -50 33 65 0
37 -3 -53 -44 -18 43 -21 -69 0
74 0
